
Log started (V12.10.0.0) Fri Apr  9 00:33:30 2021


Problem 'asset.lp' read.
Read time = 0.00 sec. (0.17 ticks)
New value for default parallel thread count: 1
New value for time limit in seconds: 200
Version identifier: 12.10.0.0 | 2019-11-26 | 843d4de
CPXPARAM_Threads                                 1
CPXPARAM_TimeLimit                               200
Found incumbent of value -0.903958 after 0.00 sec. (0.08 ticks)
Tried aggregator 3 times.
MIP Presolve eliminated 910 rows and 686 columns.
MIP Presolve modified 1369 coefficients.
Aggregator did 324 substitutions.
Reduced MIP has 388 rows, 426 columns, and 1809 nonzeros.
Reduced MIP has 378 binaries, 23 generals, 0 SOSs, and 0 indicators.
Presolve time = 0.00 sec. (4.50 ticks)
Probing fixed 108 vars, tightened 8 bounds.
Probing time = 0.00 sec. (1.11 ticks)
Cover probing fixed 0 vars, tightened 40 bounds.
Tried aggregator 1 time.
MIP Presolve eliminated 143 rows and 138 columns.
MIP Presolve modified 28 coefficients.
Reduced MIP has 245 rows, 284 columns, and 970 nonzeros.
Reduced MIP has 249 binaries, 10 generals, 0 SOSs, and 0 indicators.
Presolve time = 0.00 sec. (0.99 ticks)
Probing time = 0.00 sec. (0.57 ticks)
Tried aggregator 1 time.
Detecting symmetries...
MIP Presolve modified 58 coefficients.
Reduced MIP has 245 rows, 284 columns, and 970 nonzeros.
Reduced MIP has 249 binaries, 10 generals, 0 SOSs, and 0 indicators.
Presolve time = 0.00 sec. (0.67 ticks)
Probing time = 0.00 sec. (0.57 ticks)
Clique table members: 699.
MIP emphasis: balance optimality and feasibility.
MIP search method: dynamic search.
Parallel mode: none, using 1 thread.
Root relaxation solution time = 0.00 sec. (2.30 ticks)

        Nodes                                         Cuts/
   Node  Left     Objective  IInf  Best Integer    Best Bound    ItCnt     Gap

*     0+    0                           -0.9040      304.7019              --- 
      0     0      205.3251    85       -0.9040      205.3251      235     --- 
      0     0      190.3675    85       -0.9040     Cuts: 161      342     --- 
      0     0      183.5356    85       -0.9040      Cuts: 90      397     --- 
*     0+    0                          163.2457      183.5356            12.43%
      0     0      182.6557    85      163.2457      Cuts: 50      429   11.89%
      0     0      180.2662    85      163.2457      Cuts: 33      459   10.43%
      0     0      178.9275    85      163.2457      Cuts: 25      493    9.61%
Detecting symmetries...
      0     0      177.3600    85      163.2457      Cuts: 66      526    8.65%
      0     0      177.1712    85      163.2457      Cuts: 36      548    8.53%
      0     0      176.8762    85      163.2457       Cuts: 7      560    8.35%
      0     0      175.4891    85      163.2457      Cuts: 31      590    7.50%
      0     0      174.8256    85      163.2457      Cuts: 27      623    7.09%
      0     0      174.6040    85      163.2457      Cuts: 25      658    6.96%
      0     0      174.4510    85      163.2457      Cuts: 54      675    6.86%
      0     0      174.3080    85      163.2457      Cuts: 27      693    6.78%
      0     0      174.2455    85      163.2457      Cuts: 24      709    6.74%
      0     0      174.1590    85      163.2457       Cuts: 9      728    6.69%
      0     0      174.0794    85      163.2457      Cuts: 18      744    6.64%
      0     0      174.0263    85      163.2457      Cuts: 22      758    6.60%
      0     0      173.9998    85      163.2457      Cuts: 18      775    6.59%
      0     0      173.9943    85      163.2457      Cuts: 26      795    6.58%
Detecting symmetries...
      0     2      173.9943    94      163.2457      173.9916      795    6.58%
Elapsed time = 0.11 sec. (87.17 ticks, tree = 0.01 MB, solutions = 1)

Clique cuts applied:  22
Cover cuts applied:  2
Implied bound cuts applied:  72
Flow cuts applied:  1
Mixed integer rounding cuts applied:  9
Zero-half cuts applied:  23
Lift and project cuts applied:  1
Gomory fractional cuts applied:  3

Root node processing (before b&c):
  Real time             =    0.11 sec. (87.20 ticks)
Sequential b&c:
  Real time             =    0.09 sec. (93.13 ticks)
                          ------------
Total (root+branch&cut) =    0.20 sec. (180.33 ticks)

Solution pool: 2 solutions saved.

MIP - Integer optimal solution:  Objective =  1.6324574378e+02
Solution time =    0.20 sec.  Iterations = 4945  Nodes = 225
Deterministic time = 180.33 ticks  (906.59 ticks/sec)


Incumbent solution
Variable Name           Solution Value
F                           175.000000
f1                            0.924256
f2                           10.830000
y194                          1.000000
y109                          1.000000
y113                          1.000000
y67                           1.000000
y193                          1.000000
y188                          1.000000
y43                           1.000000
y170                          1.000000
y45                           1.000000
y159                          1.000000
s11                           6.000000
s17                           6.000000
s19                           6.000000
s27                           6.000000
s33                           6.000000
s44                           6.000000
s53                           6.000000
s63                           6.000000
s74                           6.000000
s78                           6.000000
s79                           6.000000
s81                           6.000000
s91                           6.000000
s119                          6.000000
s121                          6.000000
s139                          6.000000
s142                          6.000000
s151                          6.000000
s157                          6.000000
s160                          6.000000
s164                          6.000000
s177                          6.000000
s183                          6.000000
s194                          6.854535
s123                          6.040000
s109                          6.831625
s32                           6.130000
s56                           6.140000
s21                           6.210000
s82                           6.260000
s125                          6.270000
s18                           6.290000
s113                          7.097204
s67                           6.672248
s36                           6.640000
s193                          7.137204
s188                          6.760000
s115                          6.780000
s43                           7.702062
s126                          6.830000
s166                          6.890000
s170                          7.825726
s114                          6.920000
s45                           7.973360
s159                          7.827000
s52                           7.020000
x42x194x1                     1.000000
x13x113x1                     1.000000
x13x193x1                     1.000000
x72x170x1                     1.000000
x61x194x1                     1.000000
x129x109x1                    1.000000
x42x109x2                     1.000000
x62x43x2                      1.000000
x72x113x2                     1.000000
x61x188x2                     1.000000
x62x193x3                     1.000000
x129x188x3                    1.000000
x54x67x3                      2.000000
x194x0x1                      2.000000
x109x45x1                     1.000000
x109x45x2                     1.000000
x113x0x1                      1.000000
x113x0x2                      1.000000
x67x43x3                      1.000000
x67x170x3                     1.000000
x193x0x1                      1.000000
x193x0x3                      1.000000
x188x159x2                    1.000000
x188x159x3                    1.000000
x43x0x2                       1.000000
x43x0x3                       1.000000
x170x0x1                      1.000000
x170x0x3                      1.000000
x45x0x1                       1.000000
x45x0x2                       1.000000
x159x0x2                      1.000000
x159x0x3                      1.000000
s42                           5.100588
z42z194z1                     1.000000
z42z109z2                     1.000000
z42z166z2                     1.000000
s62                           5.441647
z62z193z3                     1.000000
z62z43z2                      1.000000
s13                           5.720000
z13z113z1                     1.000000
z13z193z1                     1.000000
s72                           5.886002
z72z113z2                     1.000000
z72z170z1                     1.000000
s61                           4.775460
z61z194z1                     1.000000
z61z188z2                     1.000000
z61z166z2                     1.000000
s129                          4.913580
z129z109z1                    1.000000
z129z188z3                    1.000000
s54                           4.832210
z54z67z3                      1.000000
z109z45z1                     1.000000
z109z45z2                     1.000000
z67z43z3                      1.000000
z67z170z3                     1.000000
z188z159z2                    1.000000
z188z159z3                    1.000000
All other variables in the range 1-1436 are 0.
